
******************************************************************************
This program contains Ipopt, a library for large-scale nonlinear optimization.
 Ipopt is released as open source code under the Eclipse Public License (EPL).
         For more information visit http://projects.coin-or.org/Ipopt
******************************************************************************

This is Ipopt version 3.12.6, running with linear solver ma57.

Number of nonzeros in equality constraint Jacobian...:        0
Number of nonzeros in inequality constraint Jacobian.:       42
Number of nonzeros in Lagrangian Hessian.............:        6

Total number of variables............................:        3
                     variables with only lower bounds:        0
                variables with lower and upper bounds:        3
                     variables with only upper bounds:        0
Total number of equality constraints.................:        0
Total number of inequality constraints...............:       14
        inequality constraints with only lower bounds:        7
   inequality constraints with lower and upper bounds:        0
        inequality constraints with only upper bounds:        7

iter    objective    inf_pr   inf_du lg(mu)  ||d||  lg(rg) alpha_du alpha_pr  ls
   0 -8.6872501e+02 0.00e+00 1.06e+00  -1.0 0.00e+00    -  0.00e+00 0.00e+00   0
   1 -9.0856245e+02 0.00e+00 3.81e-01  -1.0 3.19e+02    -  7.00e-01 1.00e+00f  1
   2 -9.8278990e+02 0.00e+00 8.07e-02  -1.0 7.32e+02    -  7.84e-01 1.00e+00f  1
   3 -1.0318841e+03 0.00e+00 4.67e-02  -1.0 1.40e+03    -  8.95e-01 4.37e-01f  1
   4 -1.1240720e+03 0.00e+00 7.59e-02  -1.0 1.49e+03    -  8.96e-01 1.00e+00f  1
   5 -1.1532630e+03 0.00e+00 8.63e-03  -1.0 6.60e+02    -  1.00e+00 9.37e-01f  1
   6 -1.1613835e+03 0.00e+00 5.63e-04  -1.0 2.11e+02    -  1.00e+00 1.00e+00f  1
   7 -1.1620768e+03 0.00e+00 6.23e-06  -1.7 1.60e+01    -  1.00e+00 1.00e+00h  1
Reallocating memory for MA57: lfact (752)
   8 -1.1621184e+03 0.00e+00 2.15e-08  -3.8 6.35e-01    -  1.00e+00 1.00e+00h  1
   9 -1.1621187e+03 0.00e+00 1.84e-11  -5.7 4.18e-03    -  1.00e+00 1.00e+00h  1
iter    objective    inf_pr   inf_du lg(mu)  ||d||  lg(rg) alpha_du alpha_pr  ls
  10 -1.1621187e+03 0.00e+00 2.51e-14  -8.6 5.32e-05    -  1.00e+00 1.00e+00h  1

Number of Iterations....: 10

                                   (scaled)                 (unscaled)
Objective...............:  -1.1621186982351801e+03   -1.1621186982351801e+03
Dual infeasibility......:   2.5091040356528538e-14    2.5091040356528538e-14
Constraint violation....:   0.0000000000000000e+00    0.0000000000000000e+00
Complementarity.........:   2.5059650631693910e-09    2.5059650631693910e-09
Overall NLP error.......:   2.5059650631693910e-09    2.5059650631693910e-09


Number of objective function evaluations             = 11
Number of objective gradient evaluations             = 11
Number of equality constraint evaluations            = 0
Number of inequality constraint evaluations          = 11
Number of equality constraint Jacobian evaluations   = 0
Number of inequality constraint Jacobian evaluations = 11
Number of Lagrangian Hessian evaluations             = 10
Total CPU secs in IPOPT (w/o function evaluations)   =      0.003
Total CPU secs in NLP function evaluations           =      0.000

EXIT: Optimal Solution Found.
Note: The following floating-point exceptions are signalling: IEEE_INVALID_FLAG IEEE_DIVIDE_BY_ZERO

************************ CUTEst statistics ************************


 Package used            :  IPOPT
 Problem                 :  HS67      
 # variables             =               3
 # constraints           =              14
 # objective functions   =        0.2300000E+02
 # objective gradients   =        0.1200000E+02
 # objective Hessians    =        0.1100000E+02
 # Hessian-vector prdct  =        0.0000000E+00
 # constraints functions =        0.2400000E+02
 # constraints gradients =        0.1300000E+02
 # constraints Hessians  =        0.1100000E+02
 Exit code               =               0
 Final f                 =  -0.1162119E+04
 Set up time             =            0.00 seconds
 Solve time              =            0.01 seconds


******************************************************************

System Time =       0.0040000002 s.
